0 28 
1 30 
2 28 
3 25 
4 23 
5 21 
6 22 
7 22 
8 21 
9 19 
10 20 
11 17 
12 17 
13 16 
14 16 
15 13 
16 12 
17 11 
18 10 
19 11 
20 9 
21 10 
22 9 
23 7 
24 7 
25 4 
26 4 
27 5 
28 3 
29 1 
30 2 
31 2 
32 1 
33 0 
34 0 

